(set-info :original "/tmp/sea-3QfVei/veris.c_OpenSER__cases1_stripFullBoth_arr_true-unreach-call_true-termination.pp.ms.o.bc")
(set-info :authors "SeaHorn v.0.1.0-rc3")
(declare-rel verifier.error (Bool Bool Bool ))
(declare-rel __VERIFIER_assert@_call (Int ))
(declare-rel __VERIFIER_assert@_ret (Int ))
(declare-rel __VERIFIER_assert (Bool Bool Bool Int ))
(declare-rel main@entry (Int ))
(declare-rel main@_bb (Int Int Int (Array Int Int) Int (Array Int Int) ))
(declare-rel main@_bb4 (Int (Array Int Int) (Array Int Int) Int Int Int ))
(declare-rel main@_bb5 (Int Int Int (Array Int Int) (Array Int Int) Int Int ))
(declare-rel main@_bb8 (Int Int Int (Array Int Int) (Array Int Int) Int Int Int ))
(declare-rel main@verifier.error.split ())
(declare-var __VERIFIER_assert@%_call1_0 Bool )
(declare-var __VERIFIER_assert@%cond_0 Int )
(declare-var __VERIFIER_assert@_call_0 Bool )
(declare-var __VERIFIER_assert@_ret_0 Bool )
(declare-var main@%_5_0 Int )
(declare-var @__VERIFIER_nondet_char_0 Int )
(declare-var main@%_6_0 Int )
(declare-var main@%_7_0 Int )
(declare-var main@%_71_0 Int )
(declare-var main@%_72_0 Int )
(declare-var main@%_73_0 Bool )
(declare-var main@%_65_0 Int )
(declare-var main@%_66_0 Int )
(declare-var main@%_67_0 Int )
(declare-var main@%_14_0 Bool )
(declare-var main@%_55_0 Int )
(declare-var main@%_56_0 Int )
(declare-var main@%_57_0 Int )
(declare-var main@%_58_0 Int )
(declare-var main@%_60_0 Int )
(declare-var main@%_61_0 Int )
(declare-var main@%_62_0 Bool )
(declare-var main@%_64_0 Bool )
(declare-var main@%_53_0 Bool )
(declare-var main@%_48_0 Int )
(declare-var main@%_49_0 Int )
(declare-var main@%_50_0 Bool )
(declare-var main@%_51_0 Int )
(declare-var main@%_46_0 Bool )
(declare-var main@%_42_0 Int )
(declare-var main@%_43_0 Int )
(declare-var main@%_44_0 Bool )
(declare-var main@%_38_0 Int )
(declare-var main@%_39_0 Int )
(declare-var main@%_40_0 Bool )
(declare-var main@%_36_0 Bool )
(declare-var main@%_31_0 Int )
(declare-var main@%_32_0 Int )
(declare-var main@%_33_0 Bool )
(declare-var main@%_34_0 Int )
(declare-var main@%_26_0 Int )
(declare-var main@%_27_0 Int )
(declare-var main@%_28_0 Bool )
(declare-var main@%_22_0 Int )
(declare-var main@%_23_0 Int )
(declare-var main@%_24_0 Bool )
(declare-var main@%_19_0 Int )
(declare-var main@%_20_0 Int )
(declare-var main@%cond.i_0 Bool )
(declare-var main@%_16_0 Bool )
(declare-var main@%_10_0 Int )
(declare-var main@%_13_0 Bool )
(declare-var main@%_3_0 Bool )
(declare-var main@entry_0 Bool )
(declare-var main@%_0_0 (Array Int Int) )
(declare-var main@%_1_0 (Array Int Int) )
(declare-var main@%str2.i_0 Int )
(declare-var main@%A.i_0 Int )
(declare-var main@_bb_0 Bool )
(declare-var main@%shadow.mem.0_0 (Array Int Int) )
(declare-var main@%i.0.i_0 Int )
(declare-var main@%shadow.mem.0_1 (Array Int Int) )
(declare-var main@%i.0.i_1 Int )
(declare-var main@_bb2_0 Bool )
(declare-var main@%_8_0 (Array Int Int) )
(declare-var main@%_9_0 Int )
(declare-var main@_bb_1 Bool )
(declare-var main@%shadow.mem.0_2 (Array Int Int) )
(declare-var main@%i.0.i_2 Int )
(declare-var main@orig.main.exit_0 Bool )
(declare-var main@%_11_0 (Array Int Int) )
(declare-var main@%_12_0 Int )
(declare-var main@precall_0 Bool )
(declare-var main@parse_expression_list_0 Bool )
(declare-var main@_bb4_0 Bool )
(declare-var main@%shadow.mem1.0_0 (Array Int Int) )
(declare-var main@%i.0.i1_0 Int )
(declare-var main@%start.0.i_0 Int )
(declare-var main@%shadow.mem1.0_1 (Array Int Int) )
(declare-var main@%i.0.i1_1 Int )
(declare-var main@%start.0.i_1 Int )
(declare-var main@%_18_0 Int )
(declare-var main@_bb14_0 Bool )
(declare-var main@%shadow.mem1.1_0 (Array Int Int) )
(declare-var main@%start.3.i_0 Int )
(declare-var main@%shadow.mem1.1_1 (Array Int Int) )
(declare-var main@%start.3.i_1 Int )
(declare-var main@_bb4_1 Bool )
(declare-var main@%shadow.mem1.0_2 (Array Int Int) )
(declare-var main@%i.0.i1_2 Int )
(declare-var main@%start.0.i_2 Int )
(declare-var main@_bb5_0 Bool )
(declare-var main@%start.1.i_0 Int )
(declare-var main@%start.1.i_1 Int )
(declare-var main@_bb6_0 Bool )
(declare-var main@.critedge.i_0 Bool )
(declare-var |tuple(main@_bb6_0, main@.critedge.i_0)| Bool )
(declare-var |tuple(main@_bb5_0, main@.critedge.i_0)| Bool )
(declare-var main@%_29_0 Int )
(declare-var main@_bb5_1 Bool )
(declare-var main@%start.1.i_2 Int )
(declare-var main@_bb7_0 Bool )
(declare-var main@%.start.1.i_0 Int )
(declare-var main@_bb8_0 Bool )
(declare-var main@%j.0.i_0 Int )
(declare-var main@%j.0.i_1 Int )
(declare-var main@_bb9_0 Bool )
(declare-var main@_bb10_0 Bool )
(declare-var main@.critedge1.i_0 Bool )
(declare-var |tuple(main@_bb10_0, main@.critedge1.i_0)| Bool )
(declare-var |tuple(main@_bb8_0, main@.critedge1.i_0)| Bool )
(declare-var main@_bb11_0 Bool )
(declare-var main@%.j.0.i_0 Int )
(declare-var main@_bb12_0 Bool )
(declare-var |tuple(main@.critedge1.i_0, main@_bb12_0)| Bool )
(declare-var main@%j.1.i_0 Int )
(declare-var main@%j.1.i_1 Int )
(declare-var main@%j.1.i_2 Int )
(declare-var main@_bb13_0 Bool )
(declare-var main@%_63_0 Int )
(declare-var main@postcall3_0 Bool )
(declare-var main@%_68_0 (Array Int Int) )
(declare-var main@%_69_0 Int )
(declare-var main@.critedge2.i_0 Bool )
(declare-var |tuple(main@_bb10_0, main@.critedge2.i_0)| Bool )
(declare-var |tuple(main@_bb9_0, main@.critedge2.i_0)| Bool )
(declare-var main@%_45_0 Int )
(declare-var main@_bb8_1 Bool )
(declare-var main@%j.0.i_2 Int )
(declare-var main@precall4_0 Bool )
(declare-var main@__VERIFIER_assert_0 Bool )
(declare-var main@_bb3_0 Bool )
(declare-var main@verifier.error_0 Bool )
(declare-var main@verifier.error.split_0 Bool )
(rule (verifier.error false false false))
(rule (verifier.error false true true))
(rule (verifier.error true false true))
(rule (verifier.error true true true))
(rule (__VERIFIER_assert true true true __VERIFIER_assert@%cond_0))
(rule (__VERIFIER_assert false true true __VERIFIER_assert@%cond_0))
(rule (__VERIFIER_assert false false false __VERIFIER_assert@%cond_0))
(rule (__VERIFIER_assert@_call __VERIFIER_assert@%cond_0))
(rule (=> (and (__VERIFIER_assert@_call __VERIFIER_assert@%cond_0)
         true
         (= __VERIFIER_assert@%_call1_0 (= __VERIFIER_assert@%cond_0 0))
         (not __VERIFIER_assert@%_call1_0)
         (=> __VERIFIER_assert@_ret_0
             (and __VERIFIER_assert@_ret_0 __VERIFIER_assert@_call_0))
         __VERIFIER_assert@_ret_0)
    (__VERIFIER_assert@_ret __VERIFIER_assert@%cond_0)))
(rule (=> (__VERIFIER_assert@_ret __VERIFIER_assert@%cond_0)
    (__VERIFIER_assert true false false __VERIFIER_assert@%cond_0)))
(rule (main@entry @__VERIFIER_nondet_char_0))
(rule (=> (and (main@entry @__VERIFIER_nondet_char_0)
         true
         (> main@%str2.i_0 0)
         (> main@%A.i_0 0)
         (=> main@_bb_0 (and main@_bb_0 main@entry_0))
         main@_bb_0
         (=> (and main@_bb_0 main@entry_0) (= main@%shadow.mem.0_0 main@%_0_0))
         (=> (and main@_bb_0 main@entry_0) (= main@%i.0.i_0 0))
         (=> (and main@_bb_0 main@entry_0)
             (= main@%shadow.mem.0_1 main@%shadow.mem.0_0))
         (=> (and main@_bb_0 main@entry_0) (= main@%i.0.i_1 main@%i.0.i_0)))
    (main@_bb @__VERIFIER_nondet_char_0
              main@%A.i_0
              main@%i.0.i_1
              main@%shadow.mem.0_1
              main@%str2.i_0
              main@%_1_0)))
(rule (let ((a!1 (=> main@_bb2_0
               (= main@%_7_0 (+ main@%A.i_0 (* 0 9) (* main@%i.0.i_0 1))))))
(let ((a!2 (and (main@_bb @__VERIFIER_nondet_char_0
                          main@%A.i_0
                          main@%i.0.i_0
                          main@%shadow.mem.0_0
                          main@%str2.i_0
                          main@%_1_0)
                true
                (= main@%_3_0 (< main@%i.0.i_0 8))
                (=> main@_bb2_0 (and main@_bb2_0 main@_bb_0))
                (=> (and main@_bb2_0 main@_bb_0) main@%_3_0)
                (=> main@_bb2_0 (= main@%_5_0 @__VERIFIER_nondet_char_0))
                a!1
                (=> main@_bb2_0 (or (<= main@%A.i_0 0) (> main@%_7_0 0)))
                (=> main@_bb2_0 (> main@%A.i_0 0))
                (=> main@_bb2_0
                    (= main@%_8_0
                       (store main@%shadow.mem.0_0 main@%_7_0 main@%_6_0)))
                (=> main@_bb2_0 (= main@%_9_0 (+ main@%i.0.i_0 1)))
                (=> main@_bb_1 (and main@_bb_1 main@_bb2_0))
                main@_bb_1
                (=> (and main@_bb_1 main@_bb2_0)
                    (= main@%shadow.mem.0_1 main@%_8_0))
                (=> (and main@_bb_1 main@_bb2_0) (= main@%i.0.i_1 main@%_9_0))
                (=> (and main@_bb_1 main@_bb2_0)
                    (= main@%shadow.mem.0_2 main@%shadow.mem.0_1))
                (=> (and main@_bb_1 main@_bb2_0)
                    (= main@%i.0.i_2 main@%i.0.i_1)))))
  (=> a!2
      (main@_bb @__VERIFIER_nondet_char_0
                main@%A.i_0
                main@%i.0.i_2
                main@%shadow.mem.0_2
                main@%str2.i_0
                main@%_1_0)))))
(rule (let ((a!1 (= main@%_10_0 (+ (+ main@%A.i_0 (* 0 9)) (* 8 1))))
      (a!2 (= main@%_12_0 (+ (+ main@%A.i_0 (* 0 9)) (* 0 1)))))
(let ((a!3 (and (main@_bb @__VERIFIER_nondet_char_0
                          main@%A.i_0
                          main@%i.0.i_0
                          main@%shadow.mem.0_0
                          main@%str2.i_0
                          main@%_1_0)
                true
                (= main@%_3_0 (< main@%i.0.i_0 8))
                (=> main@orig.main.exit_0
                    (and main@orig.main.exit_0 main@_bb_0))
                (=> (and main@orig.main.exit_0 main@_bb_0) (not main@%_3_0))
                (=> main@orig.main.exit_0 a!1)
                (=> main@orig.main.exit_0
                    (or (<= main@%A.i_0 0) (> main@%_10_0 0)))
                (=> main@orig.main.exit_0 (> main@%A.i_0 0))
                (=> main@orig.main.exit_0
                    (= main@%_11_0 (store main@%shadow.mem.0_0 main@%_10_0 0)))
                (=> main@orig.main.exit_0 a!2)
                (=> main@orig.main.exit_0
                    (or (<= main@%A.i_0 0) (> main@%_12_0 0)))
                (=> main@orig.main.exit_0 (not main@%_13_0))
                (=> main@precall_0 (and main@precall_0 main@orig.main.exit_0))
                (=> main@parse_expression_list_0
                    (and main@parse_expression_list_0 main@precall_0))
                (=> main@parse_expression_list_0
                    (= main@%_16_0 (= main@%_12_0 0)))
                (=> main@parse_expression_list_0 (not main@%_16_0))
                (=> main@_bb4_0 (and main@_bb4_0 main@parse_expression_list_0))
                main@_bb4_0
                (=> (and main@_bb4_0 main@parse_expression_list_0)
                    (= main@%shadow.mem1.0_0 main@%_1_0))
                (=> (and main@_bb4_0 main@parse_expression_list_0)
                    (= main@%i.0.i1_0 (- 1)))
                (=> (and main@_bb4_0 main@parse_expression_list_0)
                    (= main@%start.0.i_0 0))
                (=> (and main@_bb4_0 main@parse_expression_list_0)
                    (= main@%shadow.mem1.0_1 main@%shadow.mem1.0_0))
                (=> (and main@_bb4_0 main@parse_expression_list_0)
                    (= main@%i.0.i1_1 main@%i.0.i1_0))
                (=> (and main@_bb4_0 main@parse_expression_list_0)
                    (= main@%start.0.i_1 main@%start.0.i_0)))))
  (=> a!3
      (main@_bb4 main@%_12_0
                 main@%_11_0
                 main@%shadow.mem1.0_1
                 main@%i.0.i1_1
                 main@%start.0.i_1
                 main@%str2.i_0)))))
(rule (let ((a!1 (=> main@_bb14_0 (= main@%_71_0 (+ main@%_12_0 (* main@%_18_0 1))))))
(let ((a!2 (and (main@_bb4 main@%_12_0
                           main@%_11_0
                           main@%shadow.mem1.0_0
                           main@%i.0.i1_0
                           main@%start.0.i_0
                           main@%str2.i_0)
                true
                (= main@%_18_0 (+ main@%i.0.i1_0 1))
                (= main@%_19_0 (+ main@%_12_0 (* main@%_18_0 1)))
                (or (<= main@%_12_0 0) (> main@%_19_0 0))
                (> main@%_12_0 0)
                (= main@%_20_0 (select main@%_11_0 main@%_19_0))
                (= main@%cond.i_0 (= main@%_20_0 0))
                (=> main@_bb14_0 (and main@_bb14_0 main@_bb4_0))
                (=> (and main@_bb14_0 main@_bb4_0) (not main@%cond.i_0))
                (=> (and main@_bb14_0 main@_bb4_0)
                    (= main@%shadow.mem1.1_0 main@%shadow.mem1.0_0))
                (=> (and main@_bb14_0 main@_bb4_0)
                    (= main@%start.3.i_0 main@%start.0.i_0))
                (=> (and main@_bb14_0 main@_bb4_0)
                    (= main@%shadow.mem1.1_1 main@%shadow.mem1.1_0))
                (=> (and main@_bb14_0 main@_bb4_0)
                    (= main@%start.3.i_1 main@%start.3.i_0))
                a!1
                (=> main@_bb14_0 (or (<= main@%_12_0 0) (> main@%_71_0 0)))
                (=> main@_bb14_0 (> main@%_12_0 0))
                (=> main@_bb14_0
                    (= main@%_72_0 (select main@%_11_0 main@%_71_0)))
                (=> main@_bb14_0 (= main@%_73_0 (= main@%_72_0 0)))
                (=> main@_bb14_0 (not main@%_73_0))
                (=> main@_bb4_1 (and main@_bb4_1 main@_bb14_0))
                main@_bb4_1
                (=> (and main@_bb4_1 main@_bb14_0)
                    (= main@%shadow.mem1.0_1 main@%shadow.mem1.1_1))
                (=> (and main@_bb4_1 main@_bb14_0)
                    (= main@%i.0.i1_1 main@%_18_0))
                (=> (and main@_bb4_1 main@_bb14_0)
                    (= main@%start.0.i_1 main@%start.3.i_1))
                (=> (and main@_bb4_1 main@_bb14_0)
                    (= main@%shadow.mem1.0_2 main@%shadow.mem1.0_1))
                (=> (and main@_bb4_1 main@_bb14_0)
                    (= main@%i.0.i1_2 main@%i.0.i1_1))
                (=> (and main@_bb4_1 main@_bb14_0)
                    (= main@%start.0.i_2 main@%start.0.i_1)))))
  (=> a!2
      (main@_bb4 main@%_12_0
                 main@%_11_0
                 main@%shadow.mem1.0_2
                 main@%i.0.i1_2
                 main@%start.0.i_2
                 main@%str2.i_0)))))
(rule (let ((a!1 (and (main@_bb4 main@%_12_0
                           main@%_11_0
                           main@%shadow.mem1.0_0
                           main@%i.0.i1_0
                           main@%start.0.i_0
                           main@%str2.i_0)
                true
                (= main@%_18_0 (+ main@%i.0.i1_0 1))
                (= main@%_19_0 (+ main@%_12_0 (* main@%_18_0 1)))
                (or (<= main@%_12_0 0) (> main@%_19_0 0))
                (> main@%_12_0 0)
                (= main@%_20_0 (select main@%_11_0 main@%_19_0))
                (= main@%cond.i_0 (= main@%_20_0 0))
                (=> main@_bb5_0 (and main@_bb5_0 main@_bb4_0))
                main@_bb5_0
                (=> (and main@_bb5_0 main@_bb4_0) main@%cond.i_0)
                (=> (and main@_bb5_0 main@_bb4_0)
                    (= main@%start.1.i_0 main@%start.0.i_0))
                (=> (and main@_bb5_0 main@_bb4_0)
                    (= main@%start.1.i_1 main@%start.1.i_0)))))
  (=> a!1
      (main@_bb5 main@%start.1.i_1
                 main@%_12_0
                 main@%_18_0
                 main@%_11_0
                 main@%shadow.mem1.0_0
                 main@%i.0.i1_0
                 main@%str2.i_0))))
(rule (let ((a!1 (=> main@_bb6_0
               (= main@%_26_0 (+ main@%_12_0 (* main@%start.1.i_0 1))))))
(let ((a!2 (and (main@_bb5 main@%start.1.i_0
                           main@%_12_0
                           main@%_18_0
                           main@%_11_0
                           main@%shadow.mem1.0_0
                           main@%i.0.i1_0
                           main@%str2.i_0)
                true
                (= main@%_22_0 (+ main@%_12_0 (* main@%start.1.i_0 1)))
                (or (<= main@%_12_0 0) (> main@%_22_0 0))
                (> main@%_12_0 0)
                (= main@%_23_0 (select main@%_11_0 main@%_22_0))
                (= main@%_24_0 (= main@%_23_0 32))
                (=> main@_bb6_0 (and main@_bb6_0 main@_bb5_0))
                (=> (and main@_bb6_0 main@_bb5_0) (not main@%_24_0))
                a!1
                (=> main@_bb6_0 (or (<= main@%_12_0 0) (> main@%_26_0 0)))
                (=> main@_bb6_0 (> main@%_12_0 0))
                (=> main@_bb6_0
                    (= main@%_27_0 (select main@%_11_0 main@%_26_0)))
                (=> main@_bb6_0 (= main@%_28_0 (= main@%_27_0 9)))
                (=> |tuple(main@_bb6_0, main@.critedge.i_0)| main@_bb6_0)
                (=> |tuple(main@_bb5_0, main@.critedge.i_0)| main@_bb5_0)
                (=> main@.critedge.i_0
                    (or (and main@_bb6_0
                             |tuple(main@_bb6_0, main@.critedge.i_0)|)
                        (and main@_bb5_0
                             |tuple(main@_bb5_0, main@.critedge.i_0)|)))
                (=> (and main@_bb6_0 |tuple(main@_bb6_0, main@.critedge.i_0)|)
                    main@%_28_0)
                (=> (and main@_bb5_0 |tuple(main@_bb5_0, main@.critedge.i_0)|)
                    main@%_24_0)
                (=> main@.critedge.i_0 (= main@%_29_0 (+ main@%start.1.i_0 1)))
                (=> main@_bb5_1 (and main@_bb5_1 main@.critedge.i_0))
                main@_bb5_1
                (=> (and main@_bb5_1 main@.critedge.i_0)
                    (= main@%start.1.i_1 main@%_29_0))
                (=> (and main@_bb5_1 main@.critedge.i_0)
                    (= main@%start.1.i_2 main@%start.1.i_1)))))
  (=> a!2
      (main@_bb5 main@%start.1.i_2
                 main@%_12_0
                 main@%_18_0
                 main@%_11_0
                 main@%shadow.mem1.0_0
                 main@%i.0.i1_0
                 main@%str2.i_0)))))
(rule (let ((a!1 (=> main@_bb6_0
               (= main@%_26_0 (+ main@%_12_0 (* main@%start.1.i_0 1)))))
      (a!2 (=> main@_bb7_0
               (= main@%_31_0 (+ main@%_12_0 (* main@%start.1.i_0 1))))))
(let ((a!3 (and (main@_bb5 main@%start.1.i_0
                           main@%_12_0
                           main@%_18_0
                           main@%_11_0
                           main@%shadow.mem1.0_0
                           main@%i.0.i1_0
                           main@%str2.i_0)
                true
                (= main@%_22_0 (+ main@%_12_0 (* main@%start.1.i_0 1)))
                (or (<= main@%_12_0 0) (> main@%_22_0 0))
                (> main@%_12_0 0)
                (= main@%_23_0 (select main@%_11_0 main@%_22_0))
                (= main@%_24_0 (= main@%_23_0 32))
                (=> main@_bb6_0 (and main@_bb6_0 main@_bb5_0))
                (=> (and main@_bb6_0 main@_bb5_0) (not main@%_24_0))
                a!1
                (=> main@_bb6_0 (or (<= main@%_12_0 0) (> main@%_26_0 0)))
                (=> main@_bb6_0 (> main@%_12_0 0))
                (=> main@_bb6_0
                    (= main@%_27_0 (select main@%_11_0 main@%_26_0)))
                (=> main@_bb6_0 (= main@%_28_0 (= main@%_27_0 9)))
                (=> main@_bb7_0 (and main@_bb7_0 main@_bb6_0))
                (=> (and main@_bb7_0 main@_bb6_0) (not main@%_28_0))
                a!2
                (=> main@_bb7_0 (or (<= main@%_12_0 0) (> main@%_31_0 0)))
                (=> main@_bb7_0 (> main@%_12_0 0))
                (=> main@_bb7_0
                    (= main@%_32_0 (select main@%_11_0 main@%_31_0)))
                (=> main@_bb7_0 (= main@%_33_0 (= main@%_32_0 34)))
                (=> main@_bb7_0 (= main@%_34_0 (ite main@%_33_0 1 0)))
                (=> main@_bb7_0
                    (= main@%.start.1.i_0 (+ main@%start.1.i_0 main@%_34_0)))
                (=> main@_bb8_0 (and main@_bb8_0 main@_bb7_0))
                main@_bb8_0
                (=> (and main@_bb8_0 main@_bb7_0)
                    (= main@%j.0.i_0 main@%i.0.i1_0))
                (=> (and main@_bb8_0 main@_bb7_0)
                    (= main@%j.0.i_1 main@%j.0.i_0)))))
  (=> a!3
      (main@_bb8 main@%j.0.i_1
                 main@%_12_0
                 main@%_18_0
                 main@%_11_0
                 main@%shadow.mem1.0_0
                 main@%i.0.i1_0
                 main@%.start.1.i_0
                 main@%str2.i_0)))))
(rule (let ((a!1 (=> main@_bb9_0 (= main@%_38_0 (+ main@%_12_0 (* main@%j.0.i_0 1)))))
      (a!2 (=> main@_bb10_0 (= main@%_42_0 (+ main@%_12_0 (* main@%j.0.i_0 1)))))
      (a!3 (=> main@_bb11_0 (= main@%_48_0 (+ main@%_12_0 (* main@%j.0.i_0 1)))))
      (a!4 (= main@%_55_0 (+ (+ main@%str2.i_0 (* 0 2)) (* 0 1))))
      (a!5 (=> main@_bb13_0
               (= main@%_56_0 (+ main@%_12_0 (* main@%.start.1.i_0 1)))))
      (a!6 (= main@%_67_0 (+ (+ main@%str2.i_0 (* 0 2)) (* main@%_66_0 1))))
      (a!7 (=> main@_bb14_0 (= main@%_71_0 (+ main@%_12_0 (* main@%_18_0 1))))))
(let ((a!8 (and (main@_bb8 main@%j.0.i_0
                           main@%_12_0
                           main@%_18_0
                           main@%_11_0
                           main@%shadow.mem1.0_0
                           main@%i.0.i1_0
                           main@%.start.1.i_0
                           main@%str2.i_0)
                true
                (= main@%_36_0 (> main@%j.0.i_0 0))
                (=> main@_bb9_0 (and main@_bb9_0 main@_bb8_0))
                (=> (and main@_bb9_0 main@_bb8_0) main@%_36_0)
                a!1
                (=> main@_bb9_0 (or (<= main@%_12_0 0) (> main@%_38_0 0)))
                (=> main@_bb9_0 (> main@%_12_0 0))
                (=> main@_bb9_0
                    (= main@%_39_0 (select main@%_11_0 main@%_38_0)))
                (=> main@_bb9_0 (= main@%_40_0 (= main@%_39_0 32)))
                (=> main@_bb10_0 (and main@_bb10_0 main@_bb9_0))
                (=> (and main@_bb10_0 main@_bb9_0) (not main@%_40_0))
                a!2
                (=> main@_bb10_0 (or (<= main@%_12_0 0) (> main@%_42_0 0)))
                (=> main@_bb10_0 (> main@%_12_0 0))
                (=> main@_bb10_0
                    (= main@%_43_0 (select main@%_11_0 main@%_42_0)))
                (=> main@_bb10_0 (= main@%_44_0 (= main@%_43_0 9)))
                (=> |tuple(main@_bb10_0, main@.critedge1.i_0)| main@_bb10_0)
                (=> |tuple(main@_bb8_0, main@.critedge1.i_0)| main@_bb8_0)
                (=> main@.critedge1.i_0
                    (or (and main@_bb10_0
                             |tuple(main@_bb10_0, main@.critedge1.i_0)|)
                        (and main@_bb8_0
                             |tuple(main@_bb8_0, main@.critedge1.i_0)|)))
                (=> (and main@_bb10_0
                         |tuple(main@_bb10_0, main@.critedge1.i_0)|)
                    (not main@%_44_0))
                (=> (and main@_bb8_0 |tuple(main@_bb8_0, main@.critedge1.i_0)|)
                    (not main@%_36_0))
                (=> main@.critedge1.i_0 (= main@%_46_0 (> main@%j.0.i_0 0)))
                (=> main@_bb11_0 (and main@_bb11_0 main@.critedge1.i_0))
                (=> (and main@_bb11_0 main@.critedge1.i_0) main@%_46_0)
                a!3
                (=> main@_bb11_0 (or (<= main@%_12_0 0) (> main@%_48_0 0)))
                (=> main@_bb11_0 (> main@%_12_0 0))
                (=> main@_bb11_0
                    (= main@%_49_0 (select main@%_11_0 main@%_48_0)))
                (=> main@_bb11_0 (= main@%_50_0 (= main@%_49_0 34)))
                (=> main@_bb11_0 (= main@%_51_0 (ite main@%_50_0 (- 1) 0)))
                (=> main@_bb11_0
                    (= main@%.j.0.i_0 (+ main@%j.0.i_0 main@%_51_0)))
                (=> |tuple(main@.critedge1.i_0, main@_bb12_0)|
                    main@.critedge1.i_0)
                (=> main@_bb12_0
                    (or (and main@_bb12_0 main@_bb11_0)
                        (and main@.critedge1.i_0
                             |tuple(main@.critedge1.i_0, main@_bb12_0)|)))
                (=> (and main@_bb12_0 main@_bb11_0)
                    (= main@%j.1.i_0 main@%.j.0.i_0))
                (=> (and main@.critedge1.i_0
                         |tuple(main@.critedge1.i_0, main@_bb12_0)|)
                    (not main@%_46_0))
                (=> (and main@.critedge1.i_0
                         |tuple(main@.critedge1.i_0, main@_bb12_0)|)
                    (= main@%j.1.i_1 main@%j.0.i_0))
                (=> (and main@_bb12_0 main@_bb11_0)
                    (= main@%j.1.i_2 main@%j.1.i_0))
                (=> (and main@.critedge1.i_0
                         |tuple(main@.critedge1.i_0, main@_bb12_0)|)
                    (= main@%j.1.i_2 main@%j.1.i_1))
                (=> main@_bb12_0
                    (= main@%_53_0 (= main@%j.1.i_2 main@%.start.1.i_0)))
                (=> main@_bb12_0 main@%_53_0)
                (=> main@_bb13_0 (and main@_bb13_0 main@_bb12_0))
                (=> main@_bb13_0 a!4)
                (=> main@_bb13_0 (or (<= main@%str2.i_0 0) (> main@%_55_0 0)))
                a!5
                (=> main@_bb13_0 (or (<= main@%_12_0 0) (> main@%_56_0 0)))
                (=> main@_bb13_0
                    (= main@%_57_0 (- main@%j.1.i_2 main@%.start.1.i_0)))
                (=> main@_bb13_0 (= main@%_58_0 (+ main@%_57_0 1)))
                (=> main@_bb13_0
                    (= main@%_60_0 (- main@%j.1.i_2 main@%.start.1.i_0)))
                (=> main@_bb13_0 (= main@%_61_0 (+ main@%_60_0 1)))
                (=> main@_bb13_0 (= main@%_62_0 (< main@%_61_0 2)))
                (=> main@_bb13_0 (= main@%_63_0 (ite main@%_62_0 1 0)))
                (=> main@postcall3_0 (and main@postcall3_0 main@_bb13_0))
                (=> (and main@postcall3_0 main@_bb13_0) main@%_64_0)
                (__VERIFIER_assert main@postcall3_0 false false main@%_63_0)
                (=> main@postcall3_0
                    (= main@%_65_0 (- main@%j.1.i_2 main@%.start.1.i_0)))
                (=> main@postcall3_0 (= main@%_66_0 (+ main@%_65_0 1)))
                (=> main@postcall3_0 a!6)
                (=> main@postcall3_0
                    (or (<= main@%str2.i_0 0) (> main@%_67_0 0)))
                (=> main@postcall3_0 (> main@%str2.i_0 0))
                (=> main@postcall3_0
                    (= main@%_68_0 (store main@%shadow.mem1.0_0 main@%_67_0 0)))
                (=> main@postcall3_0 (= main@%_69_0 (+ main@%i.0.i1_0 2)))
                (=> main@_bb14_0 (and main@_bb14_0 main@postcall3_0))
                (=> (and main@_bb14_0 main@postcall3_0)
                    (= main@%shadow.mem1.1_0 main@%_68_0))
                (=> (and main@_bb14_0 main@postcall3_0)
                    (= main@%start.3.i_0 main@%_69_0))
                (=> (and main@_bb14_0 main@postcall3_0)
                    (= main@%shadow.mem1.1_1 main@%shadow.mem1.1_0))
                (=> (and main@_bb14_0 main@postcall3_0)
                    (= main@%start.3.i_1 main@%start.3.i_0))
                a!7
                (=> main@_bb14_0 (or (<= main@%_12_0 0) (> main@%_71_0 0)))
                (=> main@_bb14_0 (> main@%_12_0 0))
                (=> main@_bb14_0
                    (= main@%_72_0 (select main@%_11_0 main@%_71_0)))
                (=> main@_bb14_0 (= main@%_73_0 (= main@%_72_0 0)))
                (=> main@_bb14_0 (not main@%_73_0))
                (=> main@_bb4_0 (and main@_bb4_0 main@_bb14_0))
                main@_bb4_0
                (=> (and main@_bb4_0 main@_bb14_0)
                    (= main@%shadow.mem1.0_1 main@%shadow.mem1.1_1))
                (=> (and main@_bb4_0 main@_bb14_0)
                    (= main@%i.0.i1_1 main@%_18_0))
                (=> (and main@_bb4_0 main@_bb14_0)
                    (= main@%start.0.i_0 main@%start.3.i_1))
                (=> (and main@_bb4_0 main@_bb14_0)
                    (= main@%shadow.mem1.0_2 main@%shadow.mem1.0_1))
                (=> (and main@_bb4_0 main@_bb14_0)
                    (= main@%i.0.i1_2 main@%i.0.i1_1))
                (=> (and main@_bb4_0 main@_bb14_0)
                    (= main@%start.0.i_1 main@%start.0.i_0)))))
  (=> a!8
      (main@_bb4 main@%_12_0
                 main@%_11_0
                 main@%shadow.mem1.0_2
                 main@%i.0.i1_2
                 main@%start.0.i_1
                 main@%str2.i_0)))))
(rule (let ((a!1 (=> main@_bb9_0 (= main@%_38_0 (+ main@%_12_0 (* main@%j.0.i_0 1)))))
      (a!2 (=> main@_bb10_0 (= main@%_42_0 (+ main@%_12_0 (* main@%j.0.i_0 1))))))
(let ((a!3 (and (main@_bb8 main@%j.0.i_0
                           main@%_12_0
                           main@%_18_0
                           main@%_11_0
                           main@%shadow.mem1.0_0
                           main@%i.0.i1_0
                           main@%.start.1.i_0
                           main@%str2.i_0)
                true
                (= main@%_36_0 (> main@%j.0.i_0 0))
                (=> main@_bb9_0 (and main@_bb9_0 main@_bb8_0))
                (=> (and main@_bb9_0 main@_bb8_0) main@%_36_0)
                a!1
                (=> main@_bb9_0 (or (<= main@%_12_0 0) (> main@%_38_0 0)))
                (=> main@_bb9_0 (> main@%_12_0 0))
                (=> main@_bb9_0
                    (= main@%_39_0 (select main@%_11_0 main@%_38_0)))
                (=> main@_bb9_0 (= main@%_40_0 (= main@%_39_0 32)))
                (=> main@_bb10_0 (and main@_bb10_0 main@_bb9_0))
                (=> (and main@_bb10_0 main@_bb9_0) (not main@%_40_0))
                a!2
                (=> main@_bb10_0 (or (<= main@%_12_0 0) (> main@%_42_0 0)))
                (=> main@_bb10_0 (> main@%_12_0 0))
                (=> main@_bb10_0
                    (= main@%_43_0 (select main@%_11_0 main@%_42_0)))
                (=> main@_bb10_0 (= main@%_44_0 (= main@%_43_0 9)))
                (=> |tuple(main@_bb10_0, main@.critedge2.i_0)| main@_bb10_0)
                (=> |tuple(main@_bb9_0, main@.critedge2.i_0)| main@_bb9_0)
                (=> main@.critedge2.i_0
                    (or (and main@_bb10_0
                             |tuple(main@_bb10_0, main@.critedge2.i_0)|)
                        (and main@_bb9_0
                             |tuple(main@_bb9_0, main@.critedge2.i_0)|)))
                (=> (and main@_bb10_0
                         |tuple(main@_bb10_0, main@.critedge2.i_0)|)
                    main@%_44_0)
                (=> (and main@_bb9_0 |tuple(main@_bb9_0, main@.critedge2.i_0)|)
                    main@%_40_0)
                (=> main@.critedge2.i_0 (= main@%_45_0 (+ main@%j.0.i_0 (- 1))))
                (=> main@_bb8_1 (and main@_bb8_1 main@.critedge2.i_0))
                main@_bb8_1
                (=> (and main@_bb8_1 main@.critedge2.i_0)
                    (= main@%j.0.i_1 main@%_45_0))
                (=> (and main@_bb8_1 main@.critedge2.i_0)
                    (= main@%j.0.i_2 main@%j.0.i_1)))))
  (=> a!3
      (main@_bb8 main@%j.0.i_2
                 main@%_12_0
                 main@%_18_0
                 main@%_11_0
                 main@%shadow.mem1.0_0
                 main@%i.0.i1_0
                 main@%.start.1.i_0
                 main@%str2.i_0)))))
(rule (let ((a!1 (=> main@_bb9_0 (= main@%_38_0 (+ main@%_12_0 (* main@%j.0.i_0 1)))))
      (a!2 (=> main@_bb10_0 (= main@%_42_0 (+ main@%_12_0 (* main@%j.0.i_0 1)))))
      (a!3 (=> main@_bb11_0 (= main@%_48_0 (+ main@%_12_0 (* main@%j.0.i_0 1)))))
      (a!4 (=> main@_bb13_0 (= main@%_55_0 (+ main@%str2.i_0 (* 0 2) (* 0 1)))))
      (a!5 (=> main@_bb13_0
               (= main@%_56_0 (+ main@%_12_0 (* main@%.start.1.i_0 1))))))
(let ((a!6 (and (main@_bb8 main@%j.0.i_0
                           main@%_12_0
                           main@%_18_0
                           main@%_11_0
                           main@%shadow.mem1.0_0
                           main@%i.0.i1_0
                           main@%.start.1.i_0
                           main@%str2.i_0)
                true
                (= main@%_36_0 (> main@%j.0.i_0 0))
                (=> main@_bb9_0 (and main@_bb9_0 main@_bb8_0))
                (=> (and main@_bb9_0 main@_bb8_0) main@%_36_0)
                a!1
                (=> main@_bb9_0 (or (<= main@%_12_0 0) (> main@%_38_0 0)))
                (=> main@_bb9_0 (> main@%_12_0 0))
                (=> main@_bb9_0
                    (= main@%_39_0 (select main@%_11_0 main@%_38_0)))
                (=> main@_bb9_0 (= main@%_40_0 (= main@%_39_0 32)))
                (=> main@_bb10_0 (and main@_bb10_0 main@_bb9_0))
                (=> (and main@_bb10_0 main@_bb9_0) (not main@%_40_0))
                a!2
                (=> main@_bb10_0 (or (<= main@%_12_0 0) (> main@%_42_0 0)))
                (=> main@_bb10_0 (> main@%_12_0 0))
                (=> main@_bb10_0
                    (= main@%_43_0 (select main@%_11_0 main@%_42_0)))
                (=> main@_bb10_0 (= main@%_44_0 (= main@%_43_0 9)))
                (=> |tuple(main@_bb10_0, main@.critedge1.i_0)| main@_bb10_0)
                (=> |tuple(main@_bb8_0, main@.critedge1.i_0)| main@_bb8_0)
                (=> main@.critedge1.i_0
                    (or (and main@_bb10_0
                             |tuple(main@_bb10_0, main@.critedge1.i_0)|)
                        (and main@_bb8_0
                             |tuple(main@_bb8_0, main@.critedge1.i_0)|)))
                (=> (and main@_bb10_0
                         |tuple(main@_bb10_0, main@.critedge1.i_0)|)
                    (not main@%_44_0))
                (=> (and main@_bb8_0 |tuple(main@_bb8_0, main@.critedge1.i_0)|)
                    (not main@%_36_0))
                (=> main@.critedge1.i_0 (= main@%_46_0 (> main@%j.0.i_0 0)))
                (=> main@_bb11_0 (and main@_bb11_0 main@.critedge1.i_0))
                (=> (and main@_bb11_0 main@.critedge1.i_0) main@%_46_0)
                a!3
                (=> main@_bb11_0 (or (<= main@%_12_0 0) (> main@%_48_0 0)))
                (=> main@_bb11_0 (> main@%_12_0 0))
                (=> main@_bb11_0
                    (= main@%_49_0 (select main@%_11_0 main@%_48_0)))
                (=> main@_bb11_0 (= main@%_50_0 (= main@%_49_0 34)))
                (=> main@_bb11_0 (= main@%_51_0 (ite main@%_50_0 (- 1) 0)))
                (=> main@_bb11_0
                    (= main@%.j.0.i_0 (+ main@%j.0.i_0 main@%_51_0)))
                (=> |tuple(main@.critedge1.i_0, main@_bb12_0)|
                    main@.critedge1.i_0)
                (=> main@_bb12_0
                    (or (and main@_bb12_0 main@_bb11_0)
                        (and main@.critedge1.i_0
                             |tuple(main@.critedge1.i_0, main@_bb12_0)|)))
                (=> (and main@_bb12_0 main@_bb11_0)
                    (= main@%j.1.i_0 main@%.j.0.i_0))
                (=> (and main@.critedge1.i_0
                         |tuple(main@.critedge1.i_0, main@_bb12_0)|)
                    (not main@%_46_0))
                (=> (and main@.critedge1.i_0
                         |tuple(main@.critedge1.i_0, main@_bb12_0)|)
                    (= main@%j.1.i_1 main@%j.0.i_0))
                (=> (and main@_bb12_0 main@_bb11_0)
                    (= main@%j.1.i_2 main@%j.1.i_0))
                (=> (and main@.critedge1.i_0
                         |tuple(main@.critedge1.i_0, main@_bb12_0)|)
                    (= main@%j.1.i_2 main@%j.1.i_1))
                (=> main@_bb12_0
                    (= main@%_53_0 (= main@%j.1.i_2 main@%.start.1.i_0)))
                (=> main@_bb12_0 main@%_53_0)
                (=> main@_bb13_0 (and main@_bb13_0 main@_bb12_0))
                a!4
                (=> main@_bb13_0 (or (<= main@%str2.i_0 0) (> main@%_55_0 0)))
                a!5
                (=> main@_bb13_0 (or (<= main@%_12_0 0) (> main@%_56_0 0)))
                (=> main@_bb13_0
                    (= main@%_57_0 (- main@%j.1.i_2 main@%.start.1.i_0)))
                (=> main@_bb13_0 (= main@%_58_0 (+ main@%_57_0 1)))
                (=> main@_bb13_0
                    (= main@%_60_0 (- main@%j.1.i_2 main@%.start.1.i_0)))
                (=> main@_bb13_0 (= main@%_61_0 (+ main@%_60_0 1)))
                (=> main@_bb13_0 (= main@%_62_0 (< main@%_61_0 2)))
                (=> main@_bb13_0 (= main@%_63_0 (ite main@%_62_0 1 0)))
                (=> main@precall4_0 (and main@precall4_0 main@_bb13_0))
                (=> (and main@precall4_0 main@_bb13_0) (not main@%_64_0))
                (=> main@__VERIFIER_assert_0
                    (and main@__VERIFIER_assert_0 main@precall4_0))
                (=> main@__VERIFIER_assert_0 (= main@%_14_0 (= main@%_63_0 0)))
                (=> main@__VERIFIER_assert_0 main@%_14_0)
                (=> main@_bb3_0 (and main@_bb3_0 main@__VERIFIER_assert_0))
                (=> main@verifier.error_0
                    (and main@verifier.error_0 main@_bb3_0))
                (=> main@verifier.error.split_0
                    (and main@verifier.error.split_0 main@verifier.error_0))
                main@verifier.error.split_0)))
  (=> a!6 main@verifier.error.split))))
(query main@verifier.error.split)

